(push 1)
(assert (not (=> (and randomness-mapping-GETAOUT (= state-length-left-new (return-Left-keys_top-GETAOUT-state-length return-left-keys_top-GETAOUT)
)
 (= state-length-right-new (return-Right-keys_top-GETAOUT-state-length return-right-keys_top-GETAOUT)
)
 (invariant-GETAOUT state-left state-right state-length-left-old state-length-right-old return-left-keys_top-GETAOUT return-right-keys_top-GETAOUT arg-GETAOUT-h)
)
 (invariant-GETAOUT-post state-left state-right state-length-left-old state-length-right-old return-left-keys_top-GETAOUT return-right-keys_top-GETAOUT arg-GETAOUT-h)
)
)
)
(check-sat)
(pop 1)
(push 1)
(assert (not (=> (and randomness-mapping-GETAOUT (= state-length-left-new (return-Left-keys_top-GETAOUT-state-length return-left-keys_top-GETAOUT)
)
 (= state-length-right-new (return-Right-keys_top-GETAOUT-state-length return-right-keys_top-GETAOUT)
)
 (invariant-GETAOUT state-left state-right state-length-left-old state-length-right-old return-left-keys_top-GETAOUT return-right-keys_top-GETAOUT arg-GETAOUT-h)
)
 (aborts-equal-GETAOUT state-left state-right state-length-left-old state-length-right-old return-left-keys_top-GETAOUT return-right-keys_top-GETAOUT arg-GETAOUT-h)
)
)
)
(check-sat)
(pop 1)
(push 1)
(assert (not (=> (and randomness-mapping-GETAOUT (= state-length-left-new (return-Left-keys_top-GETAOUT-state-length return-left-keys_top-GETAOUT)
)
 (= state-length-right-new (return-Right-keys_top-GETAOUT-state-length return-right-keys_top-GETAOUT)
)
 (invariant-GETAOUT state-left state-right state-length-left-old state-length-right-old return-left-keys_top-GETAOUT return-right-keys_top-GETAOUT arg-GETAOUT-h)
 (no-abort-GETAOUT state-left state-right state-length-left-old state-length-right-old return-left-keys_top-GETAOUT return-right-keys_top-GETAOUT arg-GETAOUT-h)
)
 (same-output-GETAOUT state-left state-right state-length-left-old state-length-right-old return-left-keys_top-GETAOUT return-right-keys_top-GETAOUT arg-GETAOUT-h)
)
)
)
(check-sat)
(pop 1)
(push 1)
(assert (not (=> (and randomness-mapping-GBLG (= state-length-left-new (return-Left-gate-GBLG-state-length return-left-gate-GBLG)
)
 (= state-length-right-new (return-Right-simgate-GBLG-state-length return-right-simgate-GBLG)
)
 (invariant-GBLG state-left state-right state-length-left-old state-length-right-old return-left-gate-GBLG return-right-simgate-GBLG arg-GBLG-h arg-GBLG-l arg-GBLG-r arg-GBLG-op arg-GBLG-j)
)
 (right-all-aborts state-left state-right state-length-left-old state-length-right-old return-left-gate-GBLG return-right-simgate-GBLG arg-GBLG-h arg-GBLG-l arg-GBLG-r arg-GBLG-op arg-GBLG-j)
)
)
)
(check-sat)
(pop 1)
(push 1)
(assert (not (=> (and randomness-mapping-GBLG (= state-length-left-new (return-Left-gate-GBLG-state-length return-left-gate-GBLG)
)
 (= state-length-right-new (return-Right-simgate-GBLG-state-length return-right-simgate-GBLG)
)
 (invariant-GBLG state-left state-right state-length-left-old state-length-right-old return-left-gate-GBLG return-right-simgate-GBLG arg-GBLG-h arg-GBLG-l arg-GBLG-r arg-GBLG-op arg-GBLG-j)
)
 (right-all-aborts-inverse state-left state-right state-length-left-old state-length-right-old return-left-gate-GBLG return-right-simgate-GBLG arg-GBLG-h arg-GBLG-l arg-GBLG-r arg-GBLG-op arg-GBLG-j)
)
)
)
(check-sat)
(pop 1)
(push 1)
(assert (not (=> (and randomness-mapping-GBLG (= state-length-left-new (return-Left-gate-GBLG-state-length return-left-gate-GBLG)
)
 (= state-length-right-new (return-Right-simgate-GBLG-state-length return-right-simgate-GBLG)
)
 (invariant-GBLG state-left state-right state-length-left-old state-length-right-old return-left-gate-GBLG return-right-simgate-GBLG arg-GBLG-h arg-GBLG-l arg-GBLG-r arg-GBLG-op arg-GBLG-j)
)
 (left-all-aborts state-left state-right state-length-left-old state-length-right-old return-left-gate-GBLG return-right-simgate-GBLG arg-GBLG-h arg-GBLG-l arg-GBLG-r arg-GBLG-op arg-GBLG-j)
)
)
)
(check-sat)
(pop 1)
(push 1)
(assert (not (=> (and randomness-mapping-GBLG (= state-length-left-new (return-Left-gate-GBLG-state-length return-left-gate-GBLG)
)
 (= state-length-right-new (return-Right-simgate-GBLG-state-length return-right-simgate-GBLG)
)
 (invariant-GBLG state-left state-right state-length-left-old state-length-right-old return-left-gate-GBLG return-right-simgate-GBLG arg-GBLG-h arg-GBLG-l arg-GBLG-r arg-GBLG-op arg-GBLG-j)
)
 (left-inverse-all-aborts state-left state-right state-length-left-old state-length-right-old return-left-gate-GBLG return-right-simgate-GBLG arg-GBLG-h arg-GBLG-l arg-GBLG-r arg-GBLG-op arg-GBLG-j)
)
)
)
(check-sat)
(pop 1)
(push 1)
(assert (not (=> (and randomness-mapping-GBLG (= state-length-left-new (return-Left-gate-GBLG-state-length return-left-gate-GBLG)
)
 (= state-length-right-new (return-Right-simgate-GBLG-state-length return-right-simgate-GBLG)
)
 (invariant-GBLG state-left state-right state-length-left-old state-length-right-old return-left-gate-GBLG return-right-simgate-GBLG arg-GBLG-h arg-GBLG-l arg-GBLG-r arg-GBLG-op arg-GBLG-j)
 (left-all-aborts state-left state-right state-length-left-old state-length-right-old return-left-gate-GBLG return-right-simgate-GBLG arg-GBLG-h arg-GBLG-l arg-GBLG-r arg-GBLG-op arg-GBLG-j)
 (left-inverse-all-aborts state-left state-right state-length-left-old state-length-right-old return-left-gate-GBLG return-right-simgate-GBLG arg-GBLG-h arg-GBLG-l arg-GBLG-r arg-GBLG-op arg-GBLG-j)
 (right-all-aborts state-left state-right state-length-left-old state-length-right-old return-left-gate-GBLG return-right-simgate-GBLG arg-GBLG-h arg-GBLG-l arg-GBLG-r arg-GBLG-op arg-GBLG-j)
 (right-all-aborts-inverse state-left state-right state-length-left-old state-length-right-old return-left-gate-GBLG return-right-simgate-GBLG arg-GBLG-h arg-GBLG-l arg-GBLG-r arg-GBLG-op arg-GBLG-j)
)
 (aborts-equal state-left state-right state-length-left-old state-length-right-old return-left-gate-GBLG return-right-simgate-GBLG arg-GBLG-h arg-GBLG-l arg-GBLG-r arg-GBLG-op arg-GBLG-j)
)
)
)
(check-sat)
(pop 1)
(push 1)
(assert (not (=> (and randomness-mapping-GBLG (= state-length-left-new (return-Left-gate-GBLG-state-length return-left-gate-GBLG)
)
 (= state-length-right-new (return-Right-simgate-GBLG-state-length return-right-simgate-GBLG)
)
 (invariant-GBLG state-left state-right state-length-left-old state-length-right-old return-left-gate-GBLG return-right-simgate-GBLG arg-GBLG-h arg-GBLG-l arg-GBLG-r arg-GBLG-op arg-GBLG-j)
 (no-abort state-left state-right state-length-left-old state-length-right-old return-left-gate-GBLG return-right-simgate-GBLG arg-GBLG-h arg-GBLG-l arg-GBLG-r arg-GBLG-op arg-GBLG-j)
 (left-inverse-all-aborts state-left state-right state-length-left-old state-length-right-old return-left-gate-GBLG return-right-simgate-GBLG arg-GBLG-h arg-GBLG-l arg-GBLG-r arg-GBLG-op arg-GBLG-j)
 (right-all-aborts-inverse state-left state-right state-length-left-old state-length-right-old return-left-gate-GBLG return-right-simgate-GBLG arg-GBLG-h arg-GBLG-l arg-GBLG-r arg-GBLG-op arg-GBLG-j)
)
 (top-whole-left-neu-right-neu state-left state-right state-length-left-old state-length-right-old return-left-gate-GBLG return-right-simgate-GBLG arg-GBLG-h arg-GBLG-l arg-GBLG-r arg-GBLG-op arg-GBLG-j)
)
)
)
(check-sat)
(pop 1)
(push 1)
(assert (not (=> (and randomness-mapping-GBLG (= state-length-left-new (return-Left-gate-GBLG-state-length return-left-gate-GBLG)
)
 (= state-length-right-new (return-Right-simgate-GBLG-state-length return-right-simgate-GBLG)
)
 (invariant-GBLG state-left state-right state-length-left-old state-length-right-old return-left-gate-GBLG return-right-simgate-GBLG arg-GBLG-h arg-GBLG-l arg-GBLG-r arg-GBLG-op arg-GBLG-j)
 (no-abort state-left state-right state-length-left-old state-length-right-old return-left-gate-GBLG return-right-simgate-GBLG arg-GBLG-h arg-GBLG-l arg-GBLG-r arg-GBLG-op arg-GBLG-j)
 (left-all-aborts state-left state-right state-length-left-old state-length-right-old return-left-gate-GBLG return-right-simgate-GBLG arg-GBLG-h arg-GBLG-l arg-GBLG-r arg-GBLG-op arg-GBLG-j)
 (left-inverse-all-aborts state-left state-right state-length-left-old state-length-right-old return-left-gate-GBLG return-right-simgate-GBLG arg-GBLG-h arg-GBLG-l arg-GBLG-r arg-GBLG-op arg-GBLG-j)
)
 (bot-left-neu state-left state-right state-length-left-old state-length-right-old return-left-gate-GBLG return-right-simgate-GBLG arg-GBLG-h arg-GBLG-l arg-GBLG-r arg-GBLG-op arg-GBLG-j)
)
)
)
(check-sat)
(pop 1)
(push 1)
(assert (not (=> (and randomness-mapping-GBLG (= state-length-left-new (return-Left-gate-GBLG-state-length return-left-gate-GBLG)
)
 (= state-length-right-new (return-Right-simgate-GBLG-state-length return-right-simgate-GBLG)
)
 (invariant-GBLG state-left state-right state-length-left-old state-length-right-old return-left-gate-GBLG return-right-simgate-GBLG arg-GBLG-h arg-GBLG-l arg-GBLG-r arg-GBLG-op arg-GBLG-j)
 (no-abort state-left state-right state-length-left-old state-length-right-old return-left-gate-GBLG return-right-simgate-GBLG arg-GBLG-h arg-GBLG-l arg-GBLG-r arg-GBLG-op arg-GBLG-j)
 (right-all-aborts state-left state-right state-length-left-old state-length-right-old return-left-gate-GBLG return-right-simgate-GBLG arg-GBLG-h arg-GBLG-l arg-GBLG-r arg-GBLG-op arg-GBLG-j)
 (right-all-aborts-inverse state-left state-right state-length-left-old state-length-right-old return-left-gate-GBLG return-right-simgate-GBLG arg-GBLG-h arg-GBLG-l arg-GBLG-r arg-GBLG-op arg-GBLG-j)
)
 (bot-right-neu state-left state-right state-length-left-old state-length-right-old return-left-gate-GBLG return-right-simgate-GBLG arg-GBLG-h arg-GBLG-l arg-GBLG-r arg-GBLG-op arg-GBLG-j)
)
)
)
(check-sat)
(pop 1)
(push 1)
(assert (not (=> (and randomness-mapping-GBLG (= state-length-left-new (return-Left-gate-GBLG-state-length return-left-gate-GBLG)
)
 (= state-length-right-new (return-Right-simgate-GBLG-state-length return-right-simgate-GBLG)
)
 (invariant-GBLG state-left state-right state-length-left-old state-length-right-old return-left-gate-GBLG return-right-simgate-GBLG arg-GBLG-h arg-GBLG-l arg-GBLG-r arg-GBLG-op arg-GBLG-j)
 (no-abort state-left state-right state-length-left-old state-length-right-old return-left-gate-GBLG return-right-simgate-GBLG arg-GBLG-h arg-GBLG-l arg-GBLG-r arg-GBLG-op arg-GBLG-j)
 (left-all-aborts state-left state-right state-length-left-old state-length-right-old return-left-gate-GBLG return-right-simgate-GBLG arg-GBLG-h arg-GBLG-l arg-GBLG-r arg-GBLG-op arg-GBLG-j)
 (left-inverse-all-aborts state-left state-right state-length-left-old state-length-right-old return-left-gate-GBLG return-right-simgate-GBLG arg-GBLG-h arg-GBLG-l arg-GBLG-r arg-GBLG-op arg-GBLG-j)
 (right-all-aborts state-left state-right state-length-left-old state-length-right-old return-left-gate-GBLG return-right-simgate-GBLG arg-GBLG-h arg-GBLG-l arg-GBLG-r arg-GBLG-op arg-GBLG-j)
 (right-all-aborts-inverse state-left state-right state-length-left-old state-length-right-old return-left-gate-GBLG return-right-simgate-GBLG arg-GBLG-h arg-GBLG-l arg-GBLG-r arg-GBLG-op arg-GBLG-j)
 (bot-left-neu state-left state-right state-length-left-old state-length-right-old return-left-gate-GBLG return-right-simgate-GBLG arg-GBLG-h arg-GBLG-l arg-GBLG-r arg-GBLG-op arg-GBLG-j)
 (bot-right-neu state-left state-right state-length-left-old state-length-right-old return-left-gate-GBLG return-right-simgate-GBLG arg-GBLG-h arg-GBLG-l arg-GBLG-r arg-GBLG-op arg-GBLG-j)
)
 (temp state-left state-right state-length-left-old state-length-right-old return-left-gate-GBLG return-right-simgate-GBLG arg-GBLG-h arg-GBLG-l arg-GBLG-r arg-GBLG-op arg-GBLG-j)
)
)
)
(check-sat)
(pop 1)
(push 1)
(assert (not (=> (and randomness-mapping-GBLG (= state-length-left-new (return-Left-gate-GBLG-state-length return-left-gate-GBLG)
)
 (= state-length-right-new (return-Right-simgate-GBLG-state-length return-right-simgate-GBLG)
)
 (invariant-GBLG state-left state-right state-length-left-old state-length-right-old return-left-gate-GBLG return-right-simgate-GBLG arg-GBLG-h arg-GBLG-l arg-GBLG-r arg-GBLG-op arg-GBLG-j)
 (temp state-left state-right state-length-left-old state-length-right-old return-left-gate-GBLG return-right-simgate-GBLG arg-GBLG-h arg-GBLG-l arg-GBLG-r arg-GBLG-op arg-GBLG-j)
 (no-abort state-left state-right state-length-left-old state-length-right-old return-left-gate-GBLG return-right-simgate-GBLG arg-GBLG-h arg-GBLG-l arg-GBLG-r arg-GBLG-op arg-GBLG-j)
 (left-all-aborts state-left state-right state-length-left-old state-length-right-old return-left-gate-GBLG return-right-simgate-GBLG arg-GBLG-h arg-GBLG-l arg-GBLG-r arg-GBLG-op arg-GBLG-j)
 (left-inverse-all-aborts state-left state-right state-length-left-old state-length-right-old return-left-gate-GBLG return-right-simgate-GBLG arg-GBLG-h arg-GBLG-l arg-GBLG-r arg-GBLG-op arg-GBLG-j)
 (right-all-aborts state-left state-right state-length-left-old state-length-right-old return-left-gate-GBLG return-right-simgate-GBLG arg-GBLG-h arg-GBLG-l arg-GBLG-r arg-GBLG-op arg-GBLG-j)
 (right-all-aborts-inverse state-left state-right state-length-left-old state-length-right-old return-left-gate-GBLG return-right-simgate-GBLG arg-GBLG-h arg-GBLG-l arg-GBLG-r arg-GBLG-op arg-GBLG-j)
 (bot-left-neu state-left state-right state-length-left-old state-length-right-old return-left-gate-GBLG return-right-simgate-GBLG arg-GBLG-h arg-GBLG-l arg-GBLG-r arg-GBLG-op arg-GBLG-j)
 (bot-right-neu state-left state-right state-length-left-old state-length-right-old return-left-gate-GBLG return-right-simgate-GBLG arg-GBLG-h arg-GBLG-l arg-GBLG-r arg-GBLG-op arg-GBLG-j)
)
 (same-output state-left state-right state-length-left-old state-length-right-old return-left-gate-GBLG return-right-simgate-GBLG arg-GBLG-h arg-GBLG-l arg-GBLG-r arg-GBLG-op arg-GBLG-j)
)
)
)
(check-sat)
(pop 1)
(push 1)
(assert (not (=> (and randomness-mapping-GBLG (= state-length-left-new (return-Left-gate-GBLG-state-length return-left-gate-GBLG)
)
 (= state-length-right-new (return-Right-simgate-GBLG-state-length return-right-simgate-GBLG)
)
 (invariant-GBLG state-left state-right state-length-left-old state-length-right-old return-left-gate-GBLG return-right-simgate-GBLG arg-GBLG-h arg-GBLG-l arg-GBLG-r arg-GBLG-op arg-GBLG-j)
 (temp state-left state-right state-length-left-old state-length-right-old return-left-gate-GBLG return-right-simgate-GBLG arg-GBLG-h arg-GBLG-l arg-GBLG-r arg-GBLG-op arg-GBLG-j)
 (no-abort state-left state-right state-length-left-old state-length-right-old return-left-gate-GBLG return-right-simgate-GBLG arg-GBLG-h arg-GBLG-l arg-GBLG-r arg-GBLG-op arg-GBLG-j)
 (left-all-aborts state-left state-right state-length-left-old state-length-right-old return-left-gate-GBLG return-right-simgate-GBLG arg-GBLG-h arg-GBLG-l arg-GBLG-r arg-GBLG-op arg-GBLG-j)
 (left-inverse-all-aborts state-left state-right state-length-left-old state-length-right-old return-left-gate-GBLG return-right-simgate-GBLG arg-GBLG-h arg-GBLG-l arg-GBLG-r arg-GBLG-op arg-GBLG-j)
 (right-all-aborts state-left state-right state-length-left-old state-length-right-old return-left-gate-GBLG return-right-simgate-GBLG arg-GBLG-h arg-GBLG-l arg-GBLG-r arg-GBLG-op arg-GBLG-j)
 (right-all-aborts-inverse state-left state-right state-length-left-old state-length-right-old return-left-gate-GBLG return-right-simgate-GBLG arg-GBLG-h arg-GBLG-l arg-GBLG-r arg-GBLG-op arg-GBLG-j)
 (bot-left-neu state-left state-right state-length-left-old state-length-right-old return-left-gate-GBLG return-right-simgate-GBLG arg-GBLG-h arg-GBLG-l arg-GBLG-r arg-GBLG-op arg-GBLG-j)
 (bot-right-neu state-left state-right state-length-left-old state-length-right-old return-left-gate-GBLG return-right-simgate-GBLG arg-GBLG-h arg-GBLG-l arg-GBLG-r arg-GBLG-op arg-GBLG-j)
)
 (invariant-GBLG-post state-left state-right state-length-left-old state-length-right-old return-left-gate-GBLG return-right-simgate-GBLG arg-GBLG-h arg-GBLG-l arg-GBLG-r arg-GBLG-op arg-GBLG-j)
)
)
)
(check-sat)
(pop 1)
(push 1)
(assert (not (=> (and randomness-mapping-SETBIT (= state-length-left-new (return-Left-keys_top-SETBIT-state-length return-left-keys_top-SETBIT)
)
 (= state-length-right-new (return-Right-keys_top-SETBIT-state-length return-right-keys_top-SETBIT)
)
 (invariant-SETBIT state-left state-right state-length-left-old state-length-right-old return-left-keys_top-SETBIT return-right-keys_top-SETBIT arg-SETBIT-h arg-SETBIT-zz)
)
 (invariant-SETBIT-post state-left state-right state-length-left-old state-length-right-old return-left-keys_top-SETBIT return-right-keys_top-SETBIT arg-SETBIT-h arg-SETBIT-zz)
)
)
)
(check-sat)
(pop 1)
(push 1)
(assert (not (=> (and randomness-mapping-SETBIT (= state-length-left-new (return-Left-keys_top-SETBIT-state-length return-left-keys_top-SETBIT)
)
 (= state-length-right-new (return-Right-keys_top-SETBIT-state-length return-right-keys_top-SETBIT)
)
 (invariant-SETBIT state-left state-right state-length-left-old state-length-right-old return-left-keys_top-SETBIT return-right-keys_top-SETBIT arg-SETBIT-h arg-SETBIT-zz)
)
 (aborts-equal-SETBIT state-left state-right state-length-left-old state-length-right-old return-left-keys_top-SETBIT return-right-keys_top-SETBIT arg-SETBIT-h arg-SETBIT-zz)
)
)
)
(check-sat)
(pop 1)
(push 1)
(assert (not (=> (and randomness-mapping-SETBIT (= state-length-left-new (return-Left-keys_top-SETBIT-state-length return-left-keys_top-SETBIT)
)
 (= state-length-right-new (return-Right-keys_top-SETBIT-state-length return-right-keys_top-SETBIT)
)
 (invariant-SETBIT state-left state-right state-length-left-old state-length-right-old return-left-keys_top-SETBIT return-right-keys_top-SETBIT arg-SETBIT-h arg-SETBIT-zz)
 (no-abort-SETBIT state-left state-right state-length-left-old state-length-right-old return-left-keys_top-SETBIT return-right-keys_top-SETBIT arg-SETBIT-h arg-SETBIT-zz)
)
 (same-output-SETBIT state-left state-right state-length-left-old state-length-right-old return-left-keys_top-SETBIT return-right-keys_top-SETBIT arg-SETBIT-h arg-SETBIT-zz)
)
)
)
(check-sat)
(pop 1)
(push 1)
(assert (not (=> (and randomness-mapping-GETKEYSIN (= state-length-left-new (return-Left-keys_bottom-GETKEYSIN-state-length return-left-keys_bottom-GETKEYSIN)
)
 (= state-length-right-new (return-Right-keys_bottom-GETKEYSIN-state-length return-right-keys_bottom-GETKEYSIN)
)
 (invariant-GETKEYSIN state-left state-right state-length-left-old state-length-right-old return-left-keys_bottom-GETKEYSIN return-right-keys_bottom-GETKEYSIN arg-GETKEYSIN-h)
)
 (invariant-GETKEYSIN-post state-left state-right state-length-left-old state-length-right-old return-left-keys_bottom-GETKEYSIN return-right-keys_bottom-GETKEYSIN arg-GETKEYSIN-h)
)
)
)
(check-sat)
(pop 1)
(push 1)
(assert (not (=> (and randomness-mapping-GETKEYSIN (= state-length-left-new (return-Left-keys_bottom-GETKEYSIN-state-length return-left-keys_bottom-GETKEYSIN)
)
 (= state-length-right-new (return-Right-keys_bottom-GETKEYSIN-state-length return-right-keys_bottom-GETKEYSIN)
)
 (invariant-GETKEYSIN state-left state-right state-length-left-old state-length-right-old return-left-keys_bottom-GETKEYSIN return-right-keys_bottom-GETKEYSIN arg-GETKEYSIN-h)
)
 (aborts-equal-GETKEYSIN state-left state-right state-length-left-old state-length-right-old return-left-keys_bottom-GETKEYSIN return-right-keys_bottom-GETKEYSIN arg-GETKEYSIN-h)
)
)
)
(check-sat)
(pop 1)
(push 1)
(assert (not (=> (and randomness-mapping-GETKEYSIN (= state-length-left-new (return-Left-keys_bottom-GETKEYSIN-state-length return-left-keys_bottom-GETKEYSIN)
)
 (= state-length-right-new (return-Right-keys_bottom-GETKEYSIN-state-length return-right-keys_bottom-GETKEYSIN)
)
 (invariant-GETKEYSIN state-left state-right state-length-left-old state-length-right-old return-left-keys_bottom-GETKEYSIN return-right-keys_bottom-GETKEYSIN arg-GETKEYSIN-h)
 (no-abort-GETKEYSIN state-left state-right state-length-left-old state-length-right-old return-left-keys_bottom-GETKEYSIN return-right-keys_bottom-GETKEYSIN arg-GETKEYSIN-h)
)
 (same-output-GETKEYSIN state-left state-right state-length-left-old state-length-right-old return-left-keys_bottom-GETKEYSIN return-right-keys_bottom-GETKEYSIN arg-GETKEYSIN-h)
)
)
)
(check-sat)
(pop 1)
